NAME : LRC2_6_9
TYPE : PDPTW
DIMENSION : 150
EDGE_WEIGHT_TYPE : EXACT_2D
NODE_COORD_SECTION
1 1 0
2 150 0
3 0 0
4 -20 3287
5 0 2
6 150 630
7 3 199
8 2344 10
9 61 84
10 10 122
11 103 20
12 0 543
13 10 49
14 427 7
15 2400 2880
16 8 230
17 1822 10
18 55 68
19 10 67
20 180 -10
21 121 0
22 11 1045
23 442 12
24 575 1055
25 13 257
26 952 10
27 57 155
28 10 0
29 26 -6
30 179 0
31 10 253
32 447 17
33 728 1208
34 18 89
35 1312 10
36 84 231
37 10 0
38 240 -24
39 61 0
40 -15 581
41 0 22
42 374 854
43 23 180
44 533 10
45 240 73
46 10 0
47 265 -10
48 467 0
49 20 181
50 445 27
51 516 996
52 28 160
53 538 10
54 289 130
55 10 570
56 255 -40
57 340 0
58 38 1228
59 45 32
60 2148 2628
61 33 115
62 537 10
63 250 228
64 10 325
65 89 -20
66 519 0
67 20 90
68 271 37
69 33 513
70 38 159
71 841 10
72 47 277
73 10 75
74 269 -16
75 193 0
76 -20 713
77 0 42
78 347 827
79 43 74
80 3518 10
81 140 140
82 10 0
83 241 -38
84 31 0
85 20 153
86 266 47
87 85 565
88 48 136
89 2677 10
90 250 124
91 10 0
92 299 -5
93 422 0
94 10 671
95 338 52
96 233 713
97 53 212
98 1016 10
99 259 59
100 10 0
101 104 21
102 0 326
103 20 478
104 125 57
105 2338 2818
106 58 57
107 1143 10
108 232 121
109 10 222
110 132 -20
111 275 0
112 24 1303
113 20 62
114 411 891
115 63 143
116 519 10
117 248 41
118 10 246
119 263 30
120 0 431
121 -1 175
122 0 67
123 273 753
124 68 259
125 1324 10
126 38 139
127 10 212
128 41 14
129 0 584
130 -5 363
131 0 72
132 686 1166
133 73 102
134 3674 10
135 43 286
136 10 0
137 160 20
138 0 39
139 -30 258
140 0 77
141 632 1112
142 78 88
143 2836 10
144 122 127
145 10 0
146 63 10
147 0 236
148 16 150
149 421 82
150 2382 2862
PICKUP_AND_DELIVERY_SECTION
1 0 0 0 0 0 0
2 0 0 0 0 4823 0
3 0 0 0 0 0 125
4 0 0 0 0 10 10
5 0 0 0 0 107 107
6 0 0 0 0 214 214
7 0 0 0 0 -21 -21
8 0 0 0 0 0 0
9 0 0 0 0 1154 1154
10 0 0 0 0 5 0
11 0 0 0 0 533 533
12 0 0 0 0 143 143
13 0 0 0 0 10 10
14 0 0 0 0 141 141
15 0 0 0 0 0 0
16 0 0 0 0 -10 -10
17 0 0 0 0 0 0
18 0 0 0 0 390 390
19 0 0 0 0 10 0
20 0 0 0 0 1788 1788
21 0 0 0 0 159 159
22 0 0 0 0 10 10
23 0 0 0 0 4 4
24 0 0 0 0 452 452
25 0 0 0 0 10 10
26 0 0 0 0 334 0
27 0 0 0 0 227 227
28 0 0 0 0 15 15
29 0 0 0 0 2559 2559
30 0 0 0 0 231 231
31 0 0 0 0 10 10
32 0 0 0 0 132 132
33 0 0 0 0 170 170
34 0 0 0 0 -10 -10
35 0 0 0 0 0 0
36 0 0 0 0 1998 1998
37 0 0 0 0 20 20
38 0 0 0 0 2401 2401
39 0 0 0 0 110 110
40 0 0 0 0 10 10
41 0 0 0 0 74 74
42 0 0 0 0 63 63
43 0 0 0 0 19 19
44 0 0 0 0 288 0
45 0 0 0 0 277 277
46 0 0 0 0 25 25
47 0 0 0 0 955 955
48 0 0 0 0 134 134
49 0 0 0 0 10 10
50 0 0 0 0 59 59
51 0 0 0 0 0 0
52 0 0 0 0 -20 -20
53 0 0 0 0 0 0
54 0 0 0 0 1138 1138
55 0 0 0 0 30 0
56 0 0 0 0 1262 1262
57 0 0 0 0 234 234
58 0 0 0 0 10 10
59 0 0 0 0 208 208
60 0 0 0 0 207 207
61 0 0 0 0 10 10
62 0 0 0 0 219 0
63 0 0 0 0 2927 2927
64 0 0 0 0 35 0
65 0 0 0 0 3605 3605
66 0 0 0 0 105 105
67 0 0 0 0 10 10
68 0 0 0 0 183 183
69 0 0 0 0 391 391
70 0 0 0 0 15 15
71 0 0 0 0 527 0
72 0 0 0 0 414 414
73 0 0 0 0 40 0
74 0 0 0 0 2083 2083
75 0 0 0 0 212 212
76 0 0 0 0 10 10
77 0 0 0 0 149 149
78 0 0 0 0 0 0
79 0 0 0 0 -9 -9
80 0 0 0 0 0 0
81 0 0 0 0 14 14
82 0 0 0 0 45 45
83 0 0 0 0 2984 2984
84 0 0 0 0 222 222
85 0 0 0 0 10 10
86 0 0 0 0 124 124
87 0 0 0 0 202 202
88 0 0 0 0 -20 -20
89 0 0 0 0 0 0
90 0 0 0 0 352 352
91 0 0 0 0 50 50
92 0 0 0 0 1806 1806
93 0 0 0 0 258 258
94 0 0 0 0 10 10
95 0 0 0 0 47 47
96 0 0 0 0 441 441
97 0 0 0 0 20 20
98 0 0 0 0 48 0
99 0 0 0 0 564 564
100 0 0 0 0 55 55
101 0 0 0 0 577 577
102 0 0 0 0 77 77
103 0 0 0 0 10 10
104 0 0 0 0 45 45
105 0 0 0 0 215 215
106 0 0 0 0 23 23
107 0 0 0 0 366 0
108 0 0 0 0 2129 2129
109 0 0 0 0 60 0
110 0 0 0 0 909 909
111 0 0 0 0 18 18
112 0 0 0 0 10 10
113 0 0 0 0 113 113
114 0 0 0 0 0 0
115 0 0 0 0 20 20
116 0 0 0 0 22 0
117 0 0 0 0 1696 1696
118 0 0 0 0 65 0
119 0 0 0 0 1058 1058
120 0 0 0 0 109 109
121 0 0 0 0 10 10
122 0 0 0 0 71 71
123 0 0 0 0 0 0
124 0 0 0 0 -40 -40
125 0 0 0 0 0 0
126 0 0 0 0 1168 1168
127 0 0 0 0 70 0
128 0 0 0 0 1677 1677
129 0 0 0 0 255 255
130 0 0 0 0 10 10
131 0 0 0 0 122 122
132 0 0 0 0 0 0
133 0 0 0 0 -10 -10
134 0 0 0 0 0 0
135 0 0 0 0 493 493
136 0 0 0 0 75 75
137 0 0 0 0 643 643
138 0 0 0 0 172 172
139 0 0 0 0 10 10
140 0 0 0 0 22 22
141 0 0 0 0 0 0
142 0 0 0 0 -15 -15
143 0 0 0 0 0 0
144 0 0 0 0 0 36
145 0 0 0 0 80 80
146 0 0 0 0 933 933
147 0 0 0 0 53 53
148 0 0 0 0 10 10
149 0 0 0 0 281 281
150 0 0 0 0 355 355
DEPOT_SECTION
1 
-1
EOF
